(set-logic QF_S)
(declare-fun _var_0xINPUT_150827_() String)
(declare-fun __woorpje_diseq_pref0_() String)
(declare-fun __woorpje_diseq_suf_l0_() String)
(declare-fun __woorpje_diseq_suf_r0_() String)
(declare-fun __woorpje_diseq_pref1_() String)
(declare-fun __woorpje_diseq_suf_l1_() String)
(declare-fun __woorpje_diseq_suf_r1_() String)
(assert (=(str.++  "ND6MEXdqBD" "")(str.++ _var_0xINPUT_150827_  "")) )
(assert  (<= (* (str.len _var_0xINPUT_150827_)(- 1)) (- 1)) )
(assert  (<= (* (str.len _var_0xINPUT_150827_)(- 1)) (- 1)) )
(check-sat)
